SimulationType                MonteCarlo
NumberOfCycles                4000
NumberOfInitializationCycles  1000
PrintEvery                    200

Forcefield                    UFF
CutOff                        12.0

Framework 0
FrameworkName                 v010_scale12600_cuni12_proxy_simple
UnitCells                     1 1 1
ExternalTemperature           298.15
ExternalPressure              500000.0

Component 0 MoleculeName      H2
            MoleculeDefinition TraPPE
            TranslationProbability 0.5
            RotationProbability    0.5
            ReinsertionProbability 0.5
            SwapProbability        1.0
            CreateNumberOfMolecules 0
